12° run output:
{
    "Function": "kroB400.tsp",
    "Problem dimension": [
        149,
        281,
        58,
        88,
        184,
        209,
        29,
        336,
        160,
        306,
        282,
        179,
        187,
        105,
        385,
        260,
        206,
        155,
        167,
        247,
        93,
        320,
        46,
        131,
        193,
        374,
        369,
        178,
        233,
        129,
        35,
        359,
        235,
        330,
        219,
        43,
        311,
        289,
        397,
        195,
        182,
        331,
        17,
        216,
        356,
        315,
        384,
        344,
        295,
        304,
        262,
        136,
        95,
        286,
        77,
        375,
        399,
        185,
        56,
        276,
        321,
        126,
        10,
        345,
        22,
        114,
        303,
        175,
        213,
        220,
        275,
        208,
        165,
        335,
        115,
        218,
        310,
        267,
        76,
        103,
        210,
        80,
        135,
        25,
        100,
        323,
        269,
        67,
        347,
        96,
        239,
        81,
        380,
        222,
        41,
        280,
        287,
        229,
        300,
        308,
        232,
        230,
        146,
        387,
        271,
        278,
        349,
        294,
        140,
        180,
        55,
        92,
        217,
        64,
        255,
        383,
        11,
        26,
        373,
        366,
        370,
        156,
        0,
        2,
        200,
        166,
        90,
        298,
        376,
        37,
        257,
        226,
        245,
        130,
        314,
        348,
        250,
        283,
        59,
        51,
        137,
        61,
        243,
        297,
        248,
        15,
        215,
        152,
        270,
        21,
        254,
        170,
        265,
        109,
        12,
        371,
        228,
        159,
        74,
        389,
        368,
        318,
        174,
        391,
        327,
        173,
        164,
        263,
        97,
        337,
        27,
        231,
        9,
        104,
        84,
        121,
        354,
        358,
        367,
        326,
        249,
        57,
        171,
        94,
        144,
        365,
        225,
        176,
        328,
        123,
        110,
        381,
        312,
        189,
        66,
        8,
        24,
        351,
        75,
        33,
        332,
        6,
        343,
        398,
        87,
        388,
        78,
        258,
        377,
        83,
        246,
        38,
        256,
        340,
        70,
        53,
        3,
        302,
        317,
        132,
        188,
        309,
        261,
        227,
        279,
        118,
        266,
        181,
        198,
        60,
        197,
        72,
        157,
        31,
        20,
        313,
        4,
        196,
        151,
        329,
        273,
        143,
        42,
        119,
        124,
        86,
        355,
        223,
        238,
        145,
        390,
        288,
        34,
        162,
        117,
        203,
        360,
        394,
        116,
        169,
        71,
        101,
        237,
        191,
        102,
        207,
        177,
        142,
        363,
        224,
        334,
        133,
        251,
        305,
        138,
        190,
        141,
        39,
        284,
        163,
        54,
        285,
        212,
        292,
        350,
        339,
        16,
        44,
        393,
        242,
        290,
        204,
        65,
        322,
        272,
        158,
        85,
        89,
        128,
        244,
        107,
        98,
        7,
        392,
        125,
        14,
        113,
        253,
        352,
        48,
        52,
        319,
        69,
        299,
        214,
        346,
        221,
        73,
        108,
        202,
        386,
        153,
        252,
        63,
        82,
        111,
        353,
        172,
        307,
        382,
        236,
        234,
        154,
        1,
        23,
        199,
        112,
        268,
        293,
        36,
        341,
        372,
        362,
        32,
        127,
        194,
        379,
        324,
        148,
        40,
        396,
        201,
        150,
        30,
        192,
        301,
        205,
        120,
        291,
        5,
        50,
        186,
        316,
        241,
        161,
        395,
        274,
        139,
        49,
        259,
        106,
        68,
        240,
        183,
        134,
        338,
        13,
        62,
        91,
        147,
        47,
        264,
        296,
        333,
        18,
        277,
        19,
        168,
        378,
        364,
        99,
        357,
        28,
        361,
        211,
        342,
        122,
        45,
        79,
        325
    ],
    "Global Optimum": 0,
    "Algorithm": "Genetic algorithm",
    "Parameters": {
        "population": 30,
        "offspring": 30,
        "mutation probability": 0.0025,
        "crossover probability": 0.9
    },
    "Fitness": 381223,
    "Solution": [
        149,
        281,
        58,
        88,
        184,
        209,
        29,
        336,
        160,
        306,
        282,
        179,
        187,
        105,
        385,
        260,
        206,
        155,
        167,
        247,
        93,
        320,
        46,
        131,
        193,
        374,
        369,
        178,
        233,
        129,
        35,
        359,
        235,
        330,
        219,
        43,
        311,
        289,
        397,
        195,
        182,
        331,
        17,
        216,
        356,
        315,
        384,
        344,
        295,
        304,
        262,
        136,
        95,
        286,
        77,
        375,
        399,
        185,
        56,
        276,
        321,
        126,
        10,
        345,
        22,
        114,
        303,
        175,
        213,
        220,
        275,
        208,
        165,
        335,
        115,
        218,
        310,
        267,
        76,
        103,
        210,
        80,
        135,
        25,
        100,
        323,
        269,
        67,
        347,
        96,
        239,
        81,
        380,
        222,
        41,
        280,
        287,
        229,
        300,
        308,
        232,
        230,
        146,
        387,
        271,
        278,
        349,
        294,
        140,
        180,
        55,
        92,
        217,
        64,
        255,
        383,
        11,
        26,
        373,
        366,
        370,
        156,
        0,
        2,
        200,
        166,
        90,
        298,
        376,
        37,
        257,
        226,
        245,
        130,
        314,
        348,
        250,
        283,
        59,
        51,
        137,
        61,
        243,
        297,
        248,
        15,
        215,
        152,
        270,
        21,
        254,
        170,
        265,
        109,
        12,
        371,
        228,
        159,
        74,
        389,
        368,
        318,
        174,
        391,
        327,
        173,
        164,
        263,
        97,
        337,
        27,
        231,
        9,
        104,
        84,
        121,
        354,
        358,
        367,
        326,
        249,
        57,
        171,
        94,
        144,
        365,
        225,
        176,
        328,
        123,
        110,
        381,
        312,
        189,
        66,
        8,
        24,
        351,
        75,
        33,
        332,
        6,
        343,
        398,
        87,
        388,
        78,
        258,
        377,
        83,
        246,
        38,
        256,
        340,
        70,
        53,
        3,
        302,
        317,
        132,
        188,
        309,
        261,
        227,
        279,
        118,
        266,
        181,
        198,
        60,
        197,
        72,
        157,
        31,
        20,
        313,
        4,
        196,
        151,
        329,
        273,
        143,
        42,
        119,
        124,
        86,
        355,
        223,
        238,
        145,
        390,
        288,
        34,
        162,
        117,
        203,
        360,
        394,
        116,
        169,
        71,
        101,
        237,
        191,
        102,
        207,
        177,
        142,
        363,
        224,
        334,
        133,
        251,
        305,
        138,
        190,
        141,
        39,
        284,
        163,
        54,
        285,
        212,
        292,
        350,
        339,
        16,
        44,
        393,
        242,
        290,
        204,
        65,
        322,
        272,
        158,
        85,
        89,
        128,
        244,
        107,
        98,
        7,
        392,
        125,
        14,
        113,
        253,
        352,
        48,
        52,
        319,
        69,
        299,
        214,
        346,
        221,
        73,
        108,
        202,
        386,
        153,
        252,
        63,
        82,
        111,
        353,
        172,
        307,
        382,
        236,
        234,
        154,
        1,
        23,
        199,
        112,
        268,
        293,
        36,
        341,
        372,
        362,
        32,
        127,
        194,
        379,
        324,
        148,
        40,
        396,
        201,
        150,
        30,
        192,
        301,
        205,
        120,
        291,
        5,
        50,
        186,
        316,
        241,
        161,
        395,
        274,
        139,
        49,
        259,
        106,
        68,
        240,
        183,
        134,
        338,
        13,
        62,
        91,
        147,
        47,
        264,
        296,
        333,
        18,
        277,
        19,
        168,
        378,
        364,
        99,
        357,
        28,
        361,
        211,
        342,
        122,
        45,
        79,
        325
    ],
    "Nb of functions evaluations": 400020,
    "Computational time in seconds": 1019.6657993793488,
    "Stopping criterion in evaluations": 400000
}